N = 10;

dist =  
[| 0,  160, 150, 590, 340, 650, 725, 560, 350, 200  % А
| 160, 0,   260, 680, 280, 650, 820, 715, 500, 150  % А1
| 150, 260, 0,   440, 260, 520, 620, 490, 280, 150  % А2
| 590, 680, 440, 0,   490, 240, 390, 435, 400, 550  % АЗ
| 340, 280, 260, 490, 0,   660, 800, 700, 510, 140  % А4
| 650, 650, 520, 240, 660, 0,   160, 250, 340, 670  % В
| 725, 820, 620, 390, 800, 160, 0,   210, 380, 780  % В1
| 560, 715, 490, 435, 700, 250, 210, 0,   215, 650  % В2
| 350, 500, 280, 400, 510, 340, 380, 215, 0,   450  % ВЗ
| 200, 150, 150, 550, 140, 670, 780, 650, 450, 0 |];% В4